output ["x = ",show(x),"\n","y = ",show(y),"\n"];
int: n = 1000;
array [1..1001] of int: X_INTRODUCED_0_;
array [0..n] of int: y = array1d(0..1000,X_INTRODUCED_0_);
array [1..1001] of int: X_INTRODUCED_1002_;
array [0..n] of int: x = array1d(0..1000,X_INTRODUCED_1002_);
